Version identifier: 22.1.0.0 | 2022-03-09 | 1a383f8ce
CPXPARAM_Read_DataCheck                          1
1 of 1 MIP starts provided solutions.
MIP start 'm1' defined initial solution with objective 50.0000.
Tried aggregator 4 times.
MIP Presolve eliminated 49740 rows and 5686 columns.
MIP Presolve modified 705 coefficients.
Aggregator did 45383 substitutions.
Reduced MIP has 5962 rows, 46431 columns, and 98914 nonzeros.
Reduced MIP has 46401 binaries, 30 generals, 0 SOSs, and 0 indicators.
Presolve time = 0.52 sec. (546.54 ticks)
Tried aggregator 1 time.
Detecting symmetries...
Reduced MIP has 5962 rows, 46431 columns, and 98914 nonzeros.
Reduced MIP has 46401 binaries, 30 generals, 0 SOSs, and 0 indicators.
Presolve time = 0.08 sec. (71.60 ticks)
Probing fixed 46 vars, tightened 0 bounds.
Probing time = 0.15 sec. (28.15 ticks)
Clique table members: 94185.
MIP emphasis: balance optimality and feasibility.
MIP search method: dynamic search.
Parallel mode: deterministic, using up to 8 threads.
Root relaxation solution time = 0.51 sec. (377.86 ticks)

        Nodes                                         Cuts/
   Node  Left     Objective  IInf  Best Integer    Best Bound    ItCnt     Gap

*     0+    0                           50.0000        0.0000           100.00%
      0     0       30.4003  4453       50.0000       30.4003     5315   39.20%
      0     0       49.0000   866       50.0000      Cuts: 51    13123    2.00%
      0     0       49.0000   778       50.0000      Cuts: 75    25902    2.00%

Repeating presolve.
Tried aggregator 3 times.
MIP Presolve eliminated 1241 rows and 25299 columns.
MIP Presolve modified 6 coefficients.
Aggregator did 954 substitutions.
Reduced MIP has 3767 rows, 20178 columns, and 43867 nonzeros.
Reduced MIP has 20178 binaries, 0 generals, 0 SOSs, and 0 indicators.
Presolve time = 0.10 sec. (92.86 ticks)
Tried aggregator 2 times.
Detecting symmetries...
MIP Presolve eliminated 0 rows and 3 columns.
MIP Presolve modified 6 coefficients.
Aggregator did 9 substitutions.
Reduced MIP has 3758 rows, 20166 columns, and 43899 nonzeros.
Reduced MIP has 20166 binaries, 0 generals, 0 SOSs, and 0 indicators.
Presolve time = 0.04 sec. (38.49 ticks)
Represolve time = 0.19 sec. (185.85 ticks)
Probing fixed 29 vars, tightened 0 bounds.
Probing time = 0.10 sec. (34.53 ticks)
Clique table members: 37853.
MIP emphasis: balance optimality and feasibility.
MIP search method: dynamic search.
Parallel mode: deterministic, using up to 8 threads.
Root relaxation solution time = 1.48 sec. (1397.89 ticks)

        Nodes                                         Cuts/
   Node  Left     Objective  IInf  Best Integer    Best Bound    ItCnt     Gap

*     0+    0                           50.0000       49.0000             2.00%
      0     0       49.0000  2393       50.0000       49.0000    25912    2.00%
      0     0       49.0000   464       50.0000      Cuts: 80    34593    2.00%
      0     0        cutoff             50.0000                 146789    0.00%
Elapsed time = 326.28 sec. (134590.06 ticks, tree = 0.01 MB, solutions = 1)

Clique cuts applied:  69
Zero-half cuts applied:  133
Lift and project cuts applied:  3
Gomory fractional cuts applied:  25

Root node processing (before b&c):
  Real time             =  326.28 sec. (134592.15 ticks)
Parallel b&c, 8 threads:
  Real time             =    0.00 sec. (0.00 ticks)
  Sync time (average)   =    0.00 sec.
  Wait time (average)   =    0.00 sec.
                          ------------
Total (root+branch&cut) =  326.28 sec. (134592.15 ticks)
